sat
(:max-memory         18.05
 :memory             18.05
 :nlsat-conflicts    1
 :nlsat-propagations 10
 :nlsat-stages       5
 :num-allocs         22357
 :rlimit-count       3463
 :time               0.00
 :total-time         0.01)
